<number of tasks>
50

<cycle time>
1000

<order strength>
0.195


<task times>
1 84
2 59
3 189
4 118
5 503
6 134
7 100
8 65
9 253
10 115
11 476
12 169
13 117
14 312
15 95
16 186
17 548
18 61
19 527
20 52
21 157
22 63
23 215
24 293
25 471
26 128
27 126
28 33
29 180
30 222
31 159
32 180
33 403
34 146
35 142
36 77
37 446
38 110
39 60
40 418
41 146
42 162
43 332
44 292
45 178
46 77
47 117
48 131
49 58
50 520

<precedence relations>
1,13
2,9
2,10
2,23
4,12
4,15
5,14
7,22
8,11
9,18
9,46
10,22
10,37
10,43
11,25
12,17
12,24
13,19
13,43
14,16
14,17
14,20
14,23
15,21
15,26
17,40
17,47
20,39
21,27
24,29
24,30
24,31
26,28
27,32
27,50
28,34
28,35
29,33
30,33
30,37
31,35
32,38
33,40
34,38
34,39
35,36
35,37
36,41
37,42
39,43
39,44
41,46
41,47
41,49
43,46
43,48
43,50
44,45

<end>
